/* Funcion Objetivo*/
Max:1 x1_1_1 + 1 x1_1_2 + 1 x1_2_1 + 1 x1_2_2 + 1 x1_3_1 + 1 x1_3_2 + 1 x1_4_1 + 1 x1_4_2 + 1 x1_5_1 + 1 x1_5_2 + 1 x1_6_1 + 1 x1_6_2 + 1 x1_7_1 + 1 x1_7_2 + 1 x1_8_1 + 1 x1_8_2 + 1 x1_9_1 + 1 x1_9_2 + 1 x1_10_1 + 1 x1_10_2 + 1 x1_11_1 + 1 x1_11_2 + 1 x1_12_1 + 1 x1_12_2 + 1 x1_13_1 + 1 x1_13_2 + 1 x1_14_1 + 1 x1_14_2 + 1 x1_15_1 + 1 x1_15_2 + 1 x1_16_1 + 1 x1_16_2 + 1 x1_17_1 + 1 x1_17_2 + 1 x1_18_1 + 1 x1_18_2 + 1 x1_19_1 + 1 x1_19_2 + 1 x1_20_1 + 1 x1_20_2 + 1 x1_21_1 + 1 x1_21_2 + 1 x1_22_1 + 1 x1_22_2 + 1 x1_23_1 + 1 x1_23_2 + 1 x1_24_1 + 1 x1_24_2 + 1 x1_25_1 + 1 x1_25_2 + 1 x1_26_1 + 1 x1_26_2 + 1 x1_27_1 + 1 x1_27_2 + 1 x1_28_1 + 1 x1_28_2 + 1 x1_29_1 + 1 x1_29_2 + 1 x1_30_1 + 1 x1_30_2 + 1 x1_31_1 + 1 x1_31_2 + 1 x1_32_1 + 1 x1_32_2 + 1 x1_33_1 + 1 x1_33_2 + 1 x1_34_1 + 1 x1_34_2 + 1 x1_35_1 + 1 x1_35_2;

/* Restricciones 1*/
x1_1_1 + x1_1_2 + x1_2_1 + x1_2_2 + x1_3_1 + x1_3_2 + x1_4_1 + x1_4_2 + x1_5_1 + x1_5_2 + x1_6_1 + x1_6_2 + x1_7_1 + x1_7_2 + x1_8_1 + x1_8_2 + x1_9_1 + x1_9_2 + x1_10_1 + x1_10_2 + x1_11_1 + x1_11_2 + x1_12_1 + x1_12_2 + x1_13_1 + x1_13_2 + x1_14_1 + x1_14_2 + x1_15_1 + x1_15_2 + x1_16_1 + x1_16_2 + x1_17_1 + x1_17_2 + x1_18_1 + x1_18_2 + x1_19_1 + x1_19_2 + x1_20_1 + x1_20_2 + x1_21_1 + x1_21_2 + x1_22_1 + x1_22_2 + x1_23_1 + x1_23_2 + x1_24_1 + x1_24_2 + x1_25_1 + x1_25_2 + x1_26_1 + x1_26_2 + x1_27_1 + x1_27_2 + x1_28_1 + x1_28_2 + x1_29_1 + x1_29_2 + x1_30_1 + x1_30_2 + x1_31_1 + x1_31_2 + x1_32_1 + x1_32_2 + x1_33_1 + x1_33_2 + x1_34_1 + x1_34_2 + x1_35_1 + x1_35_2 <= 2;

/* Restricciones 2: Asignaturas solo se dictan en salas que cubran la capacidad de inscritos*/
44 x1_1_1 <= 47;
44 x1_2_1 <= 47;
44 x1_3_1 <= 47;
44 x1_4_1 <= 47;
44 x1_5_1 <= 47;
44 x1_6_1 <= 47;
44 x1_7_1 <= 47;
44 x1_8_1 <= 47;
44 x1_9_1 <= 47;
44 x1_10_1 <= 47;
44 x1_11_1 <= 47;
44 x1_12_1 <= 47;
44 x1_13_1 <= 47;
44 x1_14_1 <= 47;
44 x1_15_1 <= 47;
44 x1_16_1 <= 47;
44 x1_17_1 <= 47;
44 x1_18_1 <= 47;
44 x1_19_1 <= 47;
44 x1_20_1 <= 47;
44 x1_21_1 <= 47;
44 x1_22_1 <= 47;
44 x1_23_1 <= 47;
44 x1_24_1 <= 47;
44 x1_25_1 <= 47;
44 x1_26_1 <= 47;
44 x1_27_1 <= 47;
44 x1_28_1 <= 47;
44 x1_29_1 <= 47;
44 x1_30_1 <= 47;
44 x1_31_1 <= 47;
44 x1_32_1 <= 47;
44 x1_33_1 <= 47;
44 x1_34_1 <= 47;
44 x1_35_1 <= 47;
44 x1_1_2 <= 56;
44 x1_2_2 <= 56;
44 x1_3_2 <= 56;
44 x1_4_2 <= 56;
44 x1_5_2 <= 56;
44 x1_6_2 <= 56;
44 x1_7_2 <= 56;
44 x1_8_2 <= 56;
44 x1_9_2 <= 56;
44 x1_10_2 <= 56;
44 x1_11_2 <= 56;
44 x1_12_2 <= 56;
44 x1_13_2 <= 56;
44 x1_14_2 <= 56;
44 x1_15_2 <= 56;
44 x1_16_2 <= 56;
44 x1_17_2 <= 56;
44 x1_18_2 <= 56;
44 x1_19_2 <= 56;
44 x1_20_2 <= 56;
44 x1_21_2 <= 56;
44 x1_22_2 <= 56;
44 x1_23_2 <= 56;
44 x1_24_2 <= 56;
44 x1_25_2 <= 56;
44 x1_26_2 <= 56;
44 x1_27_2 <= 56;
44 x1_28_2 <= 56;
44 x1_29_2 <= 56;
44 x1_30_2 <= 56;
44 x1_31_2 <= 56;
44 x1_32_2 <= 56;
44 x1_33_2 <= 56;
44 x1_34_2 <= 56;
44 x1_35_2 <= 56;

/* Restricciones 3: Asignaturas indispensables en 1 o 2 bloques dependiendo de D_i (incluye W_i = 0) */
x1_1_1 + x1_1_2 + x1_2_1 + x1_2_2 + x1_3_1 + x1_3_2 + x1_4_1 + x1_4_2 + x1_5_1 + x1_5_2 + x1_6_1 + x1_6_2 + x1_7_1 + x1_7_2 + x1_8_1 + x1_8_2 + x1_9_1 + x1_9_2 + x1_10_1 + x1_10_2 + x1_11_1 + x1_11_2 + x1_12_1 + x1_12_2 + x1_13_1 + x1_13_2 + x1_14_1 + x1_14_2 + x1_15_1 + x1_15_2 + x1_16_1 + x1_16_2 + x1_17_1 + x1_17_2 + x1_18_1 + x1_18_2 + x1_19_1 + x1_19_2 + x1_20_1 + x1_20_2 + x1_21_1 + x1_21_2 + x1_22_1 + x1_22_2 + x1_23_1 + x1_23_2 + x1_24_1 + x1_24_2 + x1_25_1 + x1_25_2 + x1_26_1 + x1_26_2 + x1_27_1 + x1_27_2 + x1_28_1 + x1_28_2 + x1_29_1 + x1_29_2 + x1_30_1 + x1_30_2 + x1_31_1 + x1_31_2 + x1_32_1 + x1_32_2 + x1_33_1 + x1_33_2 + x1_34_1 + x1_34_2 + x1_35_1 + x1_35_2 >= 0;

/* Restricciones 4: Bloques consecutivos en la misma sala si D_i = 1 */
 x1_1_1 + x1_2_1 >= 2;
 x1_2_1 + x1_3_1 >= 2;
 x1_3_1 + x1_4_1 >= 2;
 x1_4_1 + x1_5_1 >= 2;
 x1_5_1 + x1_6_1 >= 2;
 x1_6_1 + x1_7_1 >= 2;
 x1_8_1 + x1_9_1 >= 2;
 x1_9_1 + x1_10_1 >= 2;
 x1_10_1 + x1_11_1 >= 2;
 x1_11_1 + x1_12_1 >= 2;
 x1_12_1 + x1_13_1 >= 2;
 x1_13_1 + x1_14_1 >= 2;
 x1_15_1 + x1_16_1 >= 2;
 x1_16_1 + x1_17_1 >= 2;
 x1_17_1 + x1_18_1 >= 2;
 x1_18_1 + x1_19_1 >= 2;
 x1_19_1 + x1_20_1 >= 2;
 x1_20_1 + x1_21_1 >= 2;
 x1_22_1 + x1_23_1 >= 2;
 x1_23_1 + x1_24_1 >= 2;
 x1_24_1 + x1_25_1 >= 2;
 x1_25_1 + x1_26_1 >= 2;
 x1_26_1 + x1_27_1 >= 2;
 x1_27_1 + x1_28_1 >= 2;
 x1_29_1 + x1_30_1 >= 2;
 x1_30_1 + x1_31_1 >= 2;
 x1_31_1 + x1_32_1 >= 2;
 x1_32_1 + x1_33_1 >= 2;
 x1_33_1 + x1_34_1 >= 2;
 x1_34_1 + x1_35_1 >= 2;
 x1_1_2 + x1_2_2 >= 2;
 x1_2_2 + x1_3_2 >= 2;
 x1_3_2 + x1_4_2 >= 2;
 x1_4_2 + x1_5_2 >= 2;
 x1_5_2 + x1_6_2 >= 2;
 x1_6_2 + x1_7_2 >= 2;
 x1_8_2 + x1_9_2 >= 2;
 x1_9_2 + x1_10_2 >= 2;
 x1_10_2 + x1_11_2 >= 2;
 x1_11_2 + x1_12_2 >= 2;
 x1_12_2 + x1_13_2 >= 2;
 x1_13_2 + x1_14_2 >= 2;
 x1_15_2 + x1_16_2 >= 2;
 x1_16_2 + x1_17_2 >= 2;
 x1_17_2 + x1_18_2 >= 2;
 x1_18_2 + x1_19_2 >= 2;
 x1_19_2 + x1_20_2 >= 2;
 x1_20_2 + x1_21_2 >= 2;
 x1_22_2 + x1_23_2 >= 2;
 x1_23_2 + x1_24_2 >= 2;
 x1_24_2 + x1_25_2 >= 2;
 x1_25_2 + x1_26_2 >= 2;
 x1_26_2 + x1_27_2 >= 2;
 x1_27_2 + x1_28_2 >= 2;
 x1_29_2 + x1_30_2 >= 2;
 x1_30_2 + x1_31_2 >= 2;
 x1_31_2 + x1_32_2 >= 2;
 x1_32_2 + x1_33_2 >= 2;
 x1_33_2 + x1_34_2 >= 2;
 x1_34_2 + x1_35_2 >= 2;

/* Restriccion 5: No asignar bloques consecutivos que crucen de un dia a otro */
1 x1_7_1 + 1 x1_8_1 <= 1;
1 x1_14_1 + 1 x1_15_1 <= 1;
1 x1_21_1 + 1 x1_22_1 <= 1;
1 x1_28_1 + 1 x1_29_1 <= 1;
1 x1_7_2 + 1 x1_8_2 <= 1;
1 x1_14_2 + 1 x1_15_2 <= 1;
1 x1_21_2 + 1 x1_22_2 <= 1;
1 x1_28_2 + 1 x1_29_2 <= 1;
/* Restriccion 6: Una asignatura no puede realizarse en un bloque si el profesor no está disponible */
x1_1_1 <= 0;
x1_1_2 <= 0;
x1_2_1 <= 0;
x1_2_2 <= 0;
x1_3_1 <= 1;
x1_3_2 <= 1;
x1_4_1 <= 0;
x1_4_2 <= 0;
x1_5_1 <= 0;
x1_5_2 <= 0;
x1_6_1 <= 0;
x1_6_2 <= 0;
x1_7_1 <= 1;
x1_7_2 <= 1;
x1_8_1 <= 1;
x1_8_2 <= 1;
x1_9_1 <= 1;
x1_9_2 <= 1;
x1_10_1 <= 0;
x1_10_2 <= 0;
x1_11_1 <= 0;
x1_11_2 <= 0;
x1_12_1 <= 1;
x1_12_2 <= 1;
x1_13_1 <= 0;
x1_13_2 <= 0;
x1_14_1 <= 1;
x1_14_2 <= 1;
x1_15_1 <= 1;
x1_15_2 <= 1;
x1_16_1 <= 0;
x1_16_2 <= 0;
x1_17_1 <= 0;
x1_17_2 <= 0;
x1_18_1 <= 1;
x1_18_2 <= 1;
x1_19_1 <= 0;
x1_19_2 <= 0;
x1_20_1 <= 0;
x1_20_2 <= 0;
x1_21_1 <= 0;
x1_21_2 <= 0;
x1_22_1 <= 1;
x1_22_2 <= 1;
x1_23_1 <= 0;
x1_23_2 <= 0;
x1_24_1 <= 0;
x1_24_2 <= 0;
x1_25_1 <= 1;
x1_25_2 <= 1;
x1_26_1 <= 1;
x1_26_2 <= 1;
x1_27_1 <= 1;
x1_27_2 <= 1;
x1_28_1 <= 0;
x1_28_2 <= 0;
x1_29_1 <= 1;
x1_29_2 <= 1;
x1_30_1 <= 1;
x1_30_2 <= 1;
x1_31_1 <= 0;
x1_31_2 <= 0;
x1_32_1 <= 1;
x1_32_2 <= 1;
x1_33_1 <= 1;
x1_33_2 <= 1;
x1_34_1 <= 1;
x1_34_2 <= 1;
x1_35_1 <= 1;
x1_35_2 <= 1;
/* Restriccion 7: Definir que las variables son binarias */
bin x1_1_1, x1_1_2, x1_2_1, x1_2_2, x1_3_1, x1_3_2, x1_4_1, x1_4_2, x1_5_1, x1_5_2, x1_6_1, x1_6_2, x1_7_1, x1_7_2, x1_8_1, x1_8_2, x1_9_1, x1_9_2, x1_10_1, x1_10_2, x1_11_1, x1_11_2, x1_12_1, x1_12_2, x1_13_1, x1_13_2, x1_14_1, x1_14_2, x1_15_1, x1_15_2, x1_16_1, x1_16_2, x1_17_1, x1_17_2, x1_18_1, x1_18_2, x1_19_1, x1_19_2, x1_20_1, x1_20_2, x1_21_1, x1_21_2, x1_22_1, x1_22_2, x1_23_1, x1_23_2, x1_24_1, x1_24_2, x1_25_1, x1_25_2, x1_26_1, x1_26_2, x1_27_1, x1_27_2, x1_28_1, x1_28_2, x1_29_1, x1_29_2, x1_30_1, x1_30_2, x1_31_1, x1_31_2, x1_32_1, x1_32_2, x1_33_1, x1_33_2, x1_34_1, x1_34_2, x1_35_1, x1_35_2;
